c CNF generator v0.9
p cnf 10 42
8 -10 -2 0
-1 5 -1 0
4 -4 5 0
-7 -9 10 0
9 4 9 0
8 -6 -2 0
2 -2 4 0
-9 -6 7 0
7 8 2 0
-8 -6 4 0
-4 6 7 0
4 -2 -4 0
3 -1 5 0
9 -10 -3 0
-4 -8 -4 0
8 -6 -8 0
2 6 -10 0
3 -4 4 0
-3 -10 7 0
-9 2 4 0
-2 1 9 0
-1 4 6 0
4 8 6 0
9 -10 1 0
-3 -2 10 0
5 10 -9 0
9 -1 -7 0
3 5 -7 0
6 -5 9 0
5 8 6 0
8 -1 5 0
2 3 -1 0
-5 4 6 0
1 4 -5 0
-8 6 2 0
6 -10 -9 0
10 5 -8 0
-5 -9 -8 0
-7 5 1 0
10 9 5 0
8 -5 -3 0
3 -7 4 0
